unsat
(:added-eqs                       3964
 :arith-eq-adapter                65
 :arith-bound-propagations-lp     46
 :arith-conflicts                 343
 :arith-cube-calls                1
 :arith-diseq                     684
 :arith-fixed-eqs                 151
 :arith-gcd-calls                 39
 :arith-gomory-cuts               2
 :arith-grobner-calls             152
 :arith-grobner-conflicts         25
 :arith-hnf-calls                 1
 :arith-horner-calls              52
 :arith-horner-conflicts          2
 :arith-horner-cross-nested-forms 671
 :arith-lower                     1897
 :arith-make-feasible             1936
 :arith-max-columns               123
 :arith-max-rows                  37
 :arith-nla-add-bounds            57
 :arith-nla-lemmas                181
 :arith-nla-propagate-bounds      107
 :arith-nla-propagate-eq          943
 :arith-nra-calls                 146
 :arith-offset-eqs                33
 :arith-patches                   39
 :arith-patches-success           38
 :arith-upper                     5375
 :binary-propagations             11963
 :conflicts                       442
 :decisions                       7257
 :del-clause                      522
 :elim-unconstrained              3
 :final-checks                    320
 :max-memory                      102.96
 :memory                          32.87
 :minimized-lits                  752
 :mk-bool-var                     541
 :mk-clause                       587
 :mk-clause-binary                711
 :nlsat-conflicts                 9464
 :nlsat-decisions                 291
 :nlsat-propagations              88221
 :nlsat-stages                    51030
 :num-allocs                      1457884694
 :num-checks                      1
 :propagations                    16509
 :restarts                        4
 :rlimit-count                    3073332
 :sat-backjumps                   400
 :sat-conflicts                   400
 :sat-decisions                   609
 :sat-del-clause                  5
 :sat-elim-bool-vars-res          28398
 :sat-elim-literals               42
 :sat-minimized-lits              14064
 :sat-mk-clause-2ary              119373
 :sat-mk-clause-3ary              51286
 :sat-mk-clause-nary              236047
 :sat-mk-var                      76176
 :sat-propagations-2ary           253983
 :sat-propagations-nary           148678
 :sat-scc-elim-binary             307
 :sat-scc-elim-vars               53
 :sat-subs-resolution             42
 :sat-subs-resolution-dyn         791
 :sat-subsumed                    27139
 :time                            1.43
 :total-time                      1.45)
